NAME : random995720
COMMENT: random generated with id 995720
TYPE : TSP
DIMENSION : 20
EDGE_WEIGHT_TYPE : EUC_2D
NODE_COORD_SECTION
1 14.753454 1.477954
2 11.194085 3.226296
3 10.128016 14.203236
4 13.477147 15.747785
5 19.335760 0.004191
6 18.626867 17.328035
7 6.216004 0.304413
8 1.698032 19.115960
9 3.821600 5.310064
10 6.570875 4.908623
11 5.138863 16.368158
12 9.861217 18.865725
13 15.498672 17.179484
14 13.282578 1.544449
15 12.484936 17.575613
16 8.135335 7.238390
17 19.053567 19.329420
18 10.464685 9.181583
19 13.532656 3.941833
20 4.929368 12.868416
EOF
